(set-logic QF_S)
(set-option :strings-exp true)
(set-option :produce-models true)
(declare-fun sigmaStar_0 () String)
(declare-fun literal_10 () String)
(assert (= literal_10 "\x3c\x61\x20\x68\x72\x65\x66\x3d\x5c\x22\x2f\x63\x6f\x75\x72\x73\x65\x2f\x76\x69\x65\x77\x2e\x70\x68\x70\x3f\x69\x64\x3d\x5c\x22\x3e\x6d\x61\x69\x6e\x6d\x65\x6e\x75\x3c\x2f\x61\x3e\x5c\x6e"))
(assert (str.in.re literal_10 (re.++ (re.* re.allchar) (re.++ (str.to.re "\x5c\x3c\x53\x43\x52\x49\x50\x54") (re.* re.allchar)))))
(check-sat)
(get-model)
